# 98253
param n := 25;
param s := 1;
set E :=  (0,3) (0,12) (1,2) (1,8) (1,13) (1,14) (2,5) (2,10) (3,8) (4,7) (4,12) (4,13) (4,15) (4,22) (5,8) (6,10) (6,18) (6,20) (7,9) (7,12) (7,14) (9,18) (10,16) (10,24) (11,16) (11,17) (13,22) (17,19) (17,21) (17,24) (18,24) (19,23);
